robust/generate/spp_dkp_Lefebvre_et_al_2026/src/shortest_path_8_8.kp
50
211

[2.27 1.05 1.17 1.82 1.73 4.57 1.87 3.54 3.49 1.42 1.59 1.61 0.67 4.46 4.17 2.57 1.44 4.07 3.09 1.79 2.33 2.4 4.26 2.62 3.07 0.24 1.5 0.26 0.82 4.25 4.3 3.28 3.36 2.12 4.27 1.86 3.13 2.98 2.75 1.02 3.13 4.03 3.65 1.98 4.21 3.59]

[88 86 100 35 74 76 79 36 76 78 50 1 89 14 60 36 89 79 14 15 12 19 43 11 76 47 96 10 5 15 45 28 65 86 68 10 29 83 18 6 37 82 84 95 12 68]
